NAME          
ROWS
 N  OBJ
 L  c1
COLUMNS
    MARKER    'MARKER'                 'INTORG'
    x[1]      c1        850
    x[1]      OBJ       -850
    x[2]      c1        1075
    x[2]      OBJ       -982
    x[3]      c1        550
    x[3]      OBJ       -645
    x[4]      c1        970
    x[4]      OBJ       -870
    x[5]      c1        961
    x[5]      OBJ       -871
    x[6]      c1        128
    x[6]      OBJ       -185
    x[7]      c1        1009
    x[7]      OBJ       -985
    x[8]      c1        881
    x[8]      OBJ       -949
    x[9]      c1        754
    x[9]      OBJ       -720
    x[10]     c1        208
    x[10]     OBJ       -269
RHS
    rhs       c1        3693
RANGES
BOUNDS
 BV bounds    x[1]
 BV bounds    x[2]
 BV bounds    x[3]
 BV bounds    x[4]
 BV bounds    x[5]
 BV bounds    x[6]
 BV bounds    x[7]
 BV bounds    x[8]
 BV bounds    x[9]
 BV bounds    x[10]
ENDATA
